s = array1d(1..400, [2, 17, 0, 0, 10, 0, 0, 13, 3, 15, 0, 9, 0, 0, 14, 0, 0, 0, 18, 12, 9, 0, 0, 13, 16, 10, 0, 0, 0, 19, 0, 1, 0, 0, 0, 8, 15, 0, 7, 17, 13, 8, 0, 0, 17, 0, 0, 11, 10, 0, 0, 4, 15, 0, 5, 16, 2, 0, 0, 1, 4, 19, 0, 0, 0, 0, 3, 18, 5, 12, 16, 0, 0, 17, 2, 0, 0, 15, 0, 0, 0, 0, 11, 8, 0, 0, 5, 0, 0, 18, 0, 0, 0, 4, 0, 12, 10, 2, 13, 6, 0, 13, 18, 0, 0, 0, 0, 9, 15, 2, 0, 0, 12, 16, 0, 0, 7, 19, 3, 0, 0, 0, 0, 4, 0, 7, 16, 0, 1, 0, 2, 14, 0, 11, 12, 0, 6, 8, 0, 0, 6, 9, 0, 0, 1, 3, 0, 0, 4, 0, 0, 19, 10, 0, 0, 0, 5, 16, 11, 0, 0, 0, 12, 0, 18, 14, 9, 7, 0, 11, 3, 15, 0, 0, 0, 0, 0, 0, 4, 0, 0, 0, 3, 14, 0, 0, 6, 19, 0, 7, 8, 16, 2, 12, 9, 0, 0, 0, 0, 0, 8, 0, 0, 7, 0, 4, 18, 0, 0, 17, 10, 0, 13, 1, 0, 6, 0, 0, 0, 9, 0, 6, 0, 0, 0, 0, 0, 0, 14, 16, 0, 18, 9, 0, 19, 0, 3, 0, 2, 4, 0, 3, 0, 0, 12, 1, 8, 16, 0, 0, 0, 2, 6, 0, 15, 17, 0, 0, 0, 14, 5, 0, 2, 11, 4, 16, 7, 0, 0, 0, 13, 12, 14, 15, 0, 18, 0, 0, 0, 0, 12, 0, 9, 3, 0, 0, 0, 0, 0, 0, 0, 0, 0, 5, 10, 4, 16, 11, 6, 13, 7, 0, 0, 17, 8, 0, 15, 3, 0, 6, 14, 0, 0, 2, 0, 5, 0, 18, 0, 0, 0, 11, 13, 12, 5, 0, 1, 14, 7, 0, 0, 0, 4, 19, 0, 10, 0, 0, 0, 2, 10, 0, 6, 0, 0, 12, 0, 5, 16, 0, 15, 0, 18, 0, 7, 0, 8, 0, 14, 0, 0, 1, 14, 9, 0, 13, 0, 17, 12, 0, 4, 0, 0, 0, 6, 0, 19, 7, 0, 0, 0, 14, 10, 0, 0, 5, 0, 0, 19, 0, 17, 0, 11, 6, 0, 3, 0, 4, 8, 0]);
n = 20;
